files/upTests/__reps/function-int2d-partial-set/0001.eprime
language ESSENCE' 1.0

find f_FunctionIntPair2DPartial_tuple1:
        matrix indexed by [int(1..3), int(1..3)] of bool
find f_FunctionIntPair2DPartial_tuple2_SetOccurrence:
        matrix indexed by [int(1..3), int(1..3), int(0..9)] of bool
such that
    forAll v__0 : int(1..3)
        . {(sum v__1 : int(0..9)
                . f_FunctionIntPair2DPartial_tuple2_SetOccurrence[v__0, v__0, v__1]
                  *
                  1) @ such that f_FunctionIntPair2DPartial_tuple1[v__0, v__0]}
          =
          v__0 + v__0
